c Random generated cnf formula, satisfiable: true
p cnf 10 50
7 10 -3 0
-7 2 -6 0
10 6 -2 0
-9 -4 -6 0
-5 7 1 0
6 2 10 0
-1 10 -9 0
-2 -9 1 0
-10 -3 6 0
-9 -10 -6 0
-6 -10 -9 0
-5 6 7 0
-8 -3 -1 0
-7 -5 -4 0
6 7 -2 0
9 7 -3 0
2 3 1 0
-2 -7 9 0
9 6 8 0
-9 -4 3 0
4 -6 2 0
-4 -1 -9 0
6 -10 -5 0
-4 2 -9 0
1 -9 -5 0
8 -7 -9 0
3 -8 2 0
2 -3 10 0
4 -8 5 0
-7 10 1 0
-3 7 1 0
-4 8 -5 0
10 -7 9 0
2 9 -1 0
-5 8 4 0
7 1 4 0
-6 10 -5 0
-5 -7 10 0
9 10 -6 0
-4 -2 6 0
-7 5 10 0
-7 -5 3 0
-9 8 -5 0
7 2 -9 0
5 4 6 0
-8 -10 2 0
-5 -4 7 0
-9 -7 -5 0
2 -7 -6 0
-3 -9 2 0
